rsa_demo_output_128/certs/0002.assert.smt2
; benchmark generated from python API
(set-info :status unknown)
(declare-fun p () Int)
(declare-fun q () Int)
(declare-fun n () Int)
(assert
 (= p 8191))
(assert
 (= q 377789318629571617095681283991))
(assert
 (= n 3094472308894821115630725397170281))
(assert
 (= (* p q) n))
(assert
 (> p 1))
(assert
 (> q 1))
(check-sat)
